50
750
510
504
498
489
473
473
468
466
464
460
448
427
426
426
413
401
395
354
353
345
324
286
284
283
281
278
252
233
233
231
184
174
164
162
153
152
140
139
133
128
125
123
116
106
104
92
86
85
78
77
